Number of options: 10
Size of codes: 15
3 7 8 6 4 3 8 5 9 2 0 2 4 6 9 
Size of probabilities: 15
0.05 0.04 0.02 0.61 0.28 0.08 0.02 0.04 0.04 0.81 0.19 0.3 0.16 0.34 0.02 
Number of assortments: 3
Sizes of assortments: 5 5 5 
-------------------Iteration: 1
Tried aggregator 1 time.
LP Presolve eliminated 16 rows and 32 columns.
All rows and columns eliminated.
Presolve time = 0.00 sec. (0.01 ticks)
***********************************************************
Objective value of restricted master problem: 3.9
Lamda: 1 
***********************************************************
Tried aggregator 2 times.
MIP Presolve eliminated 525 rows and 1 columns.
Aggregator did 45 substitutions.
Reduced MIP has 303 rows, 60 columns, and 855 nonzeros.
Reduced MIP has 45 binaries, 0 generals, 0 SOSs, and 0 indicators.
Presolve time = 0.00 sec. (1.76 ticks)
Probing time = 0.00 sec. (0.05 ticks)
Tried aggregator 1 time.
Reduced MIP has 303 rows, 60 columns, and 855 nonzeros.
Reduced MIP has 45 binaries, 0 generals, 0 SOSs, and 0 indicators.
Presolve time = 0.00 sec. (0.49 ticks)
Probing time = 0.00 sec. (0.05 ticks)
MIP emphasis: balance optimality and feasibility.
MIP search method: dynamic search.
Parallel mode: deterministic, using up to 8 threads.

Node log . . .
Best integer =   0.000000e+00  Node =       0  Best node =  -1.500000e+01
Best integer =  -6.000000e+00  Node =       0  Best node =  -1.500000e+01
***********************************************************

***********************************************************
-------------------Iteration: 2
Tried aggregator 1 time.
LP Presolve eliminated 9 rows and 19 columns.
Aggregator did 1 substitutions.
Reduced LP has 6 rows, 13 columns, and 18 nonzeros.
Presolve time = 0.00 sec. (0.01 ticks)
Initializing dual steep norms . . .

Iteration log . . .
Iteration:     1   Dual objective     =             2.800000
***********************************************************
Objective value of restricted master problem: 3.74
Lamda: 0.81 0.19 
***********************************************************
Tried aggregator 2 times.
MIP Presolve eliminated 525 rows and 1 columns.
Aggregator did 45 substitutions.
Reduced MIP has 303 rows, 60 columns, and 855 nonzeros.
Reduced MIP has 45 binaries, 0 generals, 0 SOSs, and 0 indicators.
Presolve time = 0.00 sec. (1.76 ticks)
Probing time = 0.00 sec. (0.05 ticks)
Tried aggregator 1 time.
Reduced MIP has 303 rows, 60 columns, and 855 nonzeros.
Reduced MIP has 45 binaries, 0 generals, 0 SOSs, and 0 indicators.
Presolve time = 0.00 sec. (0.49 ticks)
Probing time = 0.00 sec. (0.05 ticks)
MIP emphasis: balance optimality and feasibility.
MIP search method: dynamic search.
Parallel mode: deterministic, using up to 8 threads.

Node log . . .
Best integer =   0.000000e+00  Node =       0  Best node =  -1.200000e+01
Best integer =  -6.000000e+00  Node =       0  Best node =  -6.000000e+00
***********************************************************

***********************************************************
-------------------Iteration: 3
Tried aggregator 1 time.
LP Presolve eliminated 6 rows and 13 columns.
Reduced LP has 10 rows, 21 columns, and 30 nonzeros.
Presolve time = 0.00 sec. (0.01 ticks)
Initializing dual steep norms . . .

Iteration log . . .
Iteration:     1   Dual objective     =             2.040000
***********************************************************
Objective value of restricted master problem: 3.04
Lamda: 0.81 0.02 0.17 
***********************************************************
Tried aggregator 2 times.
MIP Presolve eliminated 525 rows and 1 columns.
Aggregator did 45 substitutions.
Reduced MIP has 303 rows, 60 columns, and 855 nonzeros.
Reduced MIP has 45 binaries, 0 generals, 0 SOSs, and 0 indicators.
Presolve time = 0.00 sec. (1.76 ticks)
Probing time = 0.00 sec. (0.05 ticks)
Tried aggregator 1 time.
Reduced MIP has 303 rows, 60 columns, and 855 nonzeros.
Reduced MIP has 45 binaries, 0 generals, 0 SOSs, and 0 indicators.
Presolve time = 0.00 sec. (0.49 ticks)
Probing time = 0.00 sec. (0.05 ticks)
MIP emphasis: balance optimality and feasibility.
MIP search method: dynamic search.
Parallel mode: deterministic, using up to 8 threads.

Node log . . .
Best integer =   0.000000e+00  Node =       0  Best node =  -1.000000e+01
Best integer =  -4.000000e+00  Node =       0  Best node =  -4.000000e+00
***********************************************************

***********************************************************
-------------------Iteration: 4
Tried aggregator 1 time.
LP Presolve eliminated 5 rows and 11 columns.
Reduced LP has 11 rows, 24 columns, and 36 nonzeros.
Presolve time = 0.00 sec. (0.01 ticks)
Initializing dual steep norms . . .

Iteration log . . .
Iteration:     1   Dual objective     =             1.740000
***********************************************************
Objective value of restricted master problem: 2.2
Lamda: 0.51 0.03 0.16 0.3 
***********************************************************
Tried aggregator 2 times.
MIP Presolve eliminated 525 rows and 1 columns.
Aggregator did 45 substitutions.
Reduced MIP has 303 rows, 60 columns, and 855 nonzeros.
Reduced MIP has 45 binaries, 0 generals, 0 SOSs, and 0 indicators.
Presolve time = 0.01 sec. (1.76 ticks)
Probing time = 0.00 sec. (0.05 ticks)
Tried aggregator 1 time.
Reduced MIP has 303 rows, 60 columns, and 855 nonzeros.
Reduced MIP has 45 binaries, 0 generals, 0 SOSs, and 0 indicators.
Presolve time = 0.00 sec. (0.49 ticks)
Probing time = 0.00 sec. (0.05 ticks)
MIP emphasis: balance optimality and feasibility.
MIP search method: dynamic search.
Parallel mode: deterministic, using up to 8 threads.

Node log . . .
Best integer =   0.000000e+00  Node =       0  Best node =  -9.000000e+00
Best integer =  -4.000000e+00  Node =       0  Best node =  -4.000000e+00
***********************************************************

***********************************************************
-------------------Iteration: 5
Tried aggregator 1 time.
LP Presolve eliminated 3 rows and 7 columns.
Reduced LP has 13 rows, 29 columns, and 44 nonzeros.
Presolve time = 0.00 sec. (0.01 ticks)
Initializing dual steep norms . . .

Iteration log . . .
Iteration:     1   Dual objective     =             1.580000
***********************************************************
Objective value of restricted master problem: 1.96
Lamda: 0.51 0.03 0.04 0.3 0.12 
***********************************************************
Tried aggregator 2 times.
MIP Presolve eliminated 525 rows and 1 columns.
Aggregator did 45 substitutions.
Reduced MIP has 303 rows, 60 columns, and 855 nonzeros.
Reduced MIP has 45 binaries, 0 generals, 0 SOSs, and 0 indicators.
Presolve time = 0.00 sec. (1.76 ticks)
Probing time = 0.00 sec. (0.05 ticks)
Tried aggregator 1 time.
Reduced MIP has 303 rows, 60 columns, and 855 nonzeros.
Reduced MIP has 45 binaries, 0 generals, 0 SOSs, and 0 indicators.
Presolve time = 0.00 sec. (0.49 ticks)
Probing time = 0.00 sec. (0.05 ticks)
MIP emphasis: balance optimality and feasibility.
MIP search method: dynamic search.
Parallel mode: deterministic, using up to 8 threads.

Node log . . .
Best integer =   0.000000e+00  Node =       0  Best node =  -7.000000e+00
Best integer =  -4.000000e+00  Node =       0  Best node =  -4.000000e+00
***********************************************************

***********************************************************
-------------------Iteration: 6
Tried aggregator 1 time.
LP Presolve eliminated 1 rows and 3 columns.
Reduced LP has 15 rows, 34 columns, and 52 nonzeros.
Presolve time = 0.00 sec. (0.01 ticks)
Initializing dual steep norms . . .

Iteration log . . .
Iteration:     1   Dual objective     =             0.290000
***********************************************************
Objective value of restricted master problem: 0.64
Lamda: 0.19 0.02 0.04 0.3 0.11 0.34 
***********************************************************
Tried aggregator 2 times.
MIP Presolve eliminated 525 rows and 1 columns.
Aggregator did 45 substitutions.
Reduced MIP has 303 rows, 60 columns, and 855 nonzeros.
Reduced MIP has 45 binaries, 0 generals, 0 SOSs, and 0 indicators.
Presolve time = 0.00 sec. (1.76 ticks)
Probing time = 0.00 sec. (0.05 ticks)
Tried aggregator 1 time.
Reduced MIP has 303 rows, 60 columns, and 855 nonzeros.
Reduced MIP has 45 binaries, 0 generals, 0 SOSs, and 0 indicators.
Presolve time = 0.00 sec. (0.49 ticks)
Probing time = 0.00 sec. (0.05 ticks)
MIP emphasis: balance optimality and feasibility.
MIP search method: dynamic search.
Parallel mode: deterministic, using up to 8 threads.

Node log . . .
Best integer =   0.000000e+00  Node =       0  Best node =  -7.000000e+00
Best integer =  -4.000000e+00  Node =       0  Best node =  -4.000000e+00
***********************************************************

***********************************************************
-------------------Iteration: 7
Tried aggregator 1 time.
LP Presolve eliminated 1 rows and 3 columns.
Reduced LP has 15 rows, 35 columns, and 56 nonzeros.
Presolve time = 0.00 sec. (0.01 ticks)
Initializing dual steep norms . . .

Iteration log . . .
Iteration:     1   Dual objective     =             0.020000
***********************************************************
Objective value of restricted master problem: 0.5
Lamda: 0.12 0 0.04 0.3 0.08 0.39 0.07 
***********************************************************
Tried aggregator 2 times.
MIP Presolve eliminated 525 rows and 1 columns.
Aggregator did 45 substitutions.
Reduced MIP has 303 rows, 60 columns, and 855 nonzeros.
Reduced MIP has 45 binaries, 0 generals, 0 SOSs, and 0 indicators.
Presolve time = 0.00 sec. (1.76 ticks)
Probing time = 0.00 sec. (0.05 ticks)
Tried aggregator 1 time.
Reduced MIP has 303 rows, 60 columns, and 855 nonzeros.
Reduced MIP has 45 binaries, 0 generals, 0 SOSs, and 0 indicators.
Presolve time = 0.00 sec. (0.49 ticks)
Probing time = 0.00 sec. (0.05 ticks)
MIP emphasis: balance optimality and feasibility.
MIP search method: dynamic search.
Parallel mode: deterministic, using up to 8 threads.

Node log . . .
Best integer =   0.000000e+00  Node =       0  Best node =  -9.000000e+00
Best integer =  -2.000000e+00  Node =       0  Best node =  -2.000000e+00
***********************************************************

***********************************************************
-------------------Iteration: 8
Tried aggregator 1 time.
LP Presolve eliminated 1 rows and 3 columns.
Reduced LP has 15 rows, 36 columns, and 60 nonzeros.
Presolve time = 0.00 sec. (0.01 ticks)
Initializing dual steep norms . . .

Iteration log . . .
Iteration:     1   Dual objective     =             0.020000
***********************************************************
Objective value of restricted master problem: 0.32
Lamda: 0 0.02 0.04 0.3 0.11 0.34 0.02 0.17 
***********************************************************
Tried aggregator 2 times.
MIP Presolve eliminated 525 rows and 1 columns.
Aggregator did 45 substitutions.
Reduced MIP has 303 rows, 60 columns, and 855 nonzeros.
Reduced MIP has 45 binaries, 0 generals, 0 SOSs, and 0 indicators.
Presolve time = 0.00 sec. (1.76 ticks)
Probing time = 0.00 sec. (0.05 ticks)
Tried aggregator 1 time.
Reduced MIP has 303 rows, 60 columns, and 855 nonzeros.
Reduced MIP has 45 binaries, 0 generals, 0 SOSs, and 0 indicators.
Presolve time = 0.00 sec. (0.49 ticks)
Probing time = 0.00 sec. (0.05 ticks)
MIP emphasis: balance optimality and feasibility.
MIP search method: dynamic search.
Parallel mode: deterministic, using up to 8 threads.

Node log . . .
Best integer =   0.000000e+00  Node =       0  Best node =  -6.000000e+00
Best integer =  -3.000000e+00  Node =       0  Best node =  -3.500000e+00
***********************************************************

***********************************************************
-------------------Iteration: 9
Tried aggregator 1 time.
LP Presolve eliminated 0 rows and 1 columns.
Reduced LP has 16 rows, 39 columns, and 66 nonzeros.
Presolve time = 0.00 sec. (0.01 ticks)
Initializing dual steep norms . . .

Iteration log . . .
Iteration:     1   Dual objective     =             0.000000
***********************************************************
Objective value of restricted master problem: 0.28
Lamda: 0 0.02 0.04 0.28 0.09 0.34 0.02 0.19 0.02 
***********************************************************
Tried aggregator 2 times.
MIP Presolve eliminated 525 rows and 1 columns.
Aggregator did 45 substitutions.
Reduced MIP has 303 rows, 60 columns, and 855 nonzeros.
Reduced MIP has 45 binaries, 0 generals, 0 SOSs, and 0 indicators.
Presolve time = 0.00 sec. (1.76 ticks)
Probing time = 0.00 sec. (0.05 ticks)
Tried aggregator 1 time.
Reduced MIP has 303 rows, 60 columns, and 855 nonzeros.
Reduced MIP has 45 binaries, 0 generals, 0 SOSs, and 0 indicators.
Presolve time = 0.00 sec. (0.49 ticks)
Probing time = 0.00 sec. (0.05 ticks)
MIP emphasis: balance optimality and feasibility.
MIP search method: dynamic search.
Parallel mode: deterministic, using up to 8 threads.

Node log . . .
Best integer =   0.000000e+00  Node =       0  Best node =  -6.000000e+00
Best integer =  -2.000000e+00  Node =       0  Best node =  -2.000000e+00
***********************************************************

***********************************************************
-------------------Iteration: 10
Tried aggregator 1 time.
LP Presolve eliminated 0 rows and 1 columns.
Reduced LP has 16 rows, 40 columns, and 70 nonzeros.
Presolve time = 0.00 sec. (0.02 ticks)
Initializing dual steep norms . . .

Iteration log . . .
Iteration:     1   Dual objective     =             0.000000
***********************************************************
Objective value of restricted master problem: 0.18
Lamda: 0 0.02 0.04 0.28 0.04 0.34 0.02 0.19 0.02 0.05 
***********************************************************
Tried aggregator 2 times.
MIP Presolve eliminated 525 rows and 1 columns.
Aggregator did 45 substitutions.
Reduced MIP has 303 rows, 60 columns, and 855 nonzeros.
Reduced MIP has 45 binaries, 0 generals, 0 SOSs, and 0 indicators.
Presolve time = 0.00 sec. (1.76 ticks)
Probing time = 0.00 sec. (0.05 ticks)
Tried aggregator 1 time.
Reduced MIP has 303 rows, 60 columns, and 855 nonzeros.
Reduced MIP has 45 binaries, 0 generals, 0 SOSs, and 0 indicators.
Presolve time = 0.00 sec. (0.49 ticks)
Probing time = 0.00 sec. (0.05 ticks)
MIP emphasis: balance optimality and feasibility.
MIP search method: dynamic search.
Parallel mode: deterministic, using up to 8 threads.

Node log . . .
Best integer =   1.000000e+00  Node =       0  Best node =  -4.000000e+00
Best integer =   0.000000e+00  Node =       0  Best node =  -4.000000e+00
Best integer =  -2.000000e+00  Node =       0  Best node =  -2.000000e+00
***********************************************************

***********************************************************
-------------------Iteration: 11
Tried aggregator 1 time.
LP Presolve eliminated 0 rows and 1 columns.
Reduced LP has 16 rows, 41 columns, and 74 nonzeros.
Presolve time = 0.00 sec. (0.02 ticks)
Initializing dual steep norms . . .

Iteration log . . .
Iteration:     1   Dual objective     =             0.000000
***********************************************************
Objective value of restricted master problem: 0.06
Lamda: 0 0.02 0.06 0.22 0.04 0.34 0.02 0.17 0 0.05 0.08 
***********************************************************
Tried aggregator 2 times.
MIP Presolve eliminated 525 rows and 1 columns.
Aggregator did 45 substitutions.
Reduced MIP has 303 rows, 60 columns, and 855 nonzeros.
Reduced MIP has 45 binaries, 0 generals, 0 SOSs, and 0 indicators.
Presolve time = 0.04 sec. (1.76 ticks)
Probing time = 0.00 sec. (0.05 ticks)
Tried aggregator 1 time.
Reduced MIP has 303 rows, 60 columns, and 855 nonzeros.
Reduced MIP has 45 binaries, 0 generals, 0 SOSs, and 0 indicators.
Presolve time = 0.00 sec. (0.48 ticks)
Probing time = 0.00 sec. (0.05 ticks)
MIP emphasis: balance optimality and feasibility.
MIP search method: dynamic search.
Parallel mode: deterministic, using up to 8 threads.

Node log . . .
Best integer =   0.000000e+00  Node =       0  Best node =  -3.000000e+00
Best integer =  -2.000000e+00  Node =       0  Best node =  -2.000000e+00
***********************************************************

***********************************************************
-------------------Iteration: 12
Tried aggregator 1 time.
LP Presolve eliminated 0 rows and 1 columns.
Reduced LP has 16 rows, 42 columns, and 78 nonzeros.
Presolve time = 0.00 sec. (0.02 ticks)
Initializing dual steep norms . . .

Iteration log . . .
Iteration:     1   Dual objective     =             0.000000
***********************************************************
Objective value of restricted master problem: 0.02
Lamda: 0 0.02 0.04 0.22 0.04 0.34 0.02 0.17 0 0.05 0.08 0.02 
***********************************************************
Tried aggregator 2 times.
MIP Presolve eliminated 525 rows and 1 columns.
Aggregator did 45 substitutions.
Reduced MIP has 303 rows, 60 columns, and 855 nonzeros.
Reduced MIP has 45 binaries, 0 generals, 0 SOSs, and 0 indicators.
Presolve time = 0.00 sec. (1.76 ticks)
Probing time = 0.00 sec. (0.05 ticks)
Tried aggregator 1 time.
Reduced MIP has 303 rows, 60 columns, and 855 nonzeros.
Reduced MIP has 45 binaries, 0 generals, 0 SOSs, and 0 indicators.
Presolve time = 0.00 sec. (0.49 ticks)
Probing time = 0.00 sec. (0.05 ticks)
MIP emphasis: balance optimality and feasibility.
MIP search method: dynamic search.
Parallel mode: deterministic, using up to 8 threads.

Node log . . .
Best integer =   0.000000e+00  Node =       0  Best node =  -1.000000e+00
Best integer =  -1.000000e+00  Node =       0  Best node =  -1.000000e+00
***********************************************************

***********************************************************
-------------------Iteration: 13
Tried aggregator 1 time.
LP Presolve eliminated 0 rows and 1 columns.
Reduced LP has 16 rows, 43 columns, and 82 nonzeros.
Presolve time = 0.00 sec. (0.02 ticks)
Initializing dual steep norms . . .

Iteration log . . .
Iteration:     1   Dual objective     =             0.000000
***********************************************************
Objective value of restricted master problem: 0.02
Lamda: 0 0.02 0.04 0.21 0.04 0.34 0.02 0.16 0 0.05 0.09 0.02 0.01 
***********************************************************
Tried aggregator 2 times.
MIP Presolve eliminated 525 rows and 1 columns.
Aggregator did 45 substitutions.
Reduced MIP has 303 rows, 60 columns, and 855 nonzeros.
Reduced MIP has 45 binaries, 0 generals, 0 SOSs, and 0 indicators.
Presolve time = 0.00 sec. (1.76 ticks)
Probing time = 0.00 sec. (0.05 ticks)
Tried aggregator 1 time.
Reduced MIP has 303 rows, 60 columns, and 855 nonzeros.
Reduced MIP has 45 binaries, 0 generals, 0 SOSs, and 0 indicators.
Presolve time = 0.00 sec. (0.48 ticks)
Probing time = 0.00 sec. (0.05 ticks)
MIP emphasis: balance optimality and feasibility.
MIP search method: dynamic search.
Parallel mode: deterministic, using up to 8 threads.

Node log . . .
Best integer =   0.000000e+00  Node =       0  Best node =  -5.000000e+00
Ranking data list: 
Ranking collect: 0 1 2 3 4 5 6 7 8 9 
Ranking collect: 9 8 7 6 5 4 3 2 1 0 
Ranking collect: 1 4 0 5 2 3 6 7 8 9 
Ranking collect: 1 2 0 4 3 5 6 7 8 9 
Ranking collect: 1 7 3 4 0 2 6 5 8 9 
Ranking collect: 1 6 0 2 3 4 5 7 8 9 
Ranking collect: 0 1 6 4 9 2 3 5 7 8 
Ranking collect: 0 1 2 6 3 4 5 7 8 9 
Ranking collect: 1 8 3 2 4 6 7 0 5 9 
Ranking collect: 1 3 4 0 2 5 6 7 8 9 
Ranking collect: 1 2 0 6 3 4 5 7 8 9 
Ranking collect: 1 4 0 6 7 8 2 3 5 9 
Ranking collect: 1 4 0 2 3 5 6 7 8 9 
